c
p cnf 38 59
-32 11 0
17 -35 0
37 -16 0
10 38 0
-33 -4 0
20 -32 0
20 4 0
-20 -8 0
-16 34 0
-33 3 0
34 11 0
3 36 0
-1 25 0
-13 27 0
-35 21 0
26 -7 0
-17 36 0
37 25 0
20 -30 0
25 -32 0
12 36 0
37 34 0
-1 -32 0
18 30 0
-32 8 0
-4 10 0
3 21 0
-21 -24 0
27 -22 0
30 38 0
-36 2 0
11 -2 0
18 -3 0
28 36 0
14 -34 0
15 -18 0
-37 -23 0
-4 9 0
2 -26 0
24 17 0
18 16 0
11 -32 0
-1 -22 0
31 -16 0
18 -24 0
-6 -33 0
31 -22 0
-17 -5 0
13 -27 0
-36 14 0
-20 11 0
4 -22 0
-38 -10 0
-5 -10 0
36 -21 0
-16 -20 0
-30 -28 0
-34 -33 0
16 -23 0
